c ---- [ banner ] ------------------------------------------------------------
c
c Kissat SAT Solver
c 
c Copyright (c) 2021-2023 Armin Biere University of Freiburg
c Copyright (c) 2019-2021 Armin Biere Johannes Kepler University Linz
c 
c Version 3.1.1 unknown
c gcc (Ubuntu 9.4.0-1ubuntu1~20.04.2) 9.4.0 -W -Wall -O3 -DNDEBUG
c Mon Feb 26 18:18:52 CET 2024 Linux OptiPlex-7080 5.15.0-88-generic x86_64
c
c ---- [ parsing ] -----------------------------------------------------------
c
c opened and reading DIMACS file:
c
c   /home/oliveras/SAT-comp-2023//4e64ffc14db014d5591f40865376c32a-satcoin-genesis-UNSAT-7200.cnf
c
c parsed 'p cnf 141429 646176' header
c closing input after reading 14106356 bytes (13 MB)
c finished parsing after 0.21 seconds
c
c ---- [ options ] -----------------------------------------------------------
c
c --seed=1                         (different from default '0')
c
c ---- [ solving ] -----------------------------------------------------------
c
c  seconds switched conflicts    irredundant  variables
c         MB reductions redundant        trail      remaining
c          level restarts    binary         glue
c
c *  0.21 48 0 0 0  0   0   0 51390 594625 0% 0 124570 88%
c {  0.21 48 0 0 0  0   0   0 51390 594625 0% 0 124570 88%
c i  0.21 48 9 0 0  0   1   0 51390 594625 0% 0 124567 88%
c -  0.39 50 326 0 1 349 1000 455 50359 594625 3% 7 124567 88%
c }  0.39 50 326 1 1 349 1000 455 50359 594625 3% 7 124567 88%
c [  0.39 50 0 1 1 349 1000 455 50359 594625 0% 0 124567 88%
c B  0.40 50 904 1 1 349 1001 456 50359 594625 10% 2 124567 88%
c ]  0.58 50 954 2 1 349 1088 536 50366 594625 21% 89 124567 88%
c {  0.58 51 326 2 1 349 1088 536 50366 594625 3% 7 124567 88%
c i  0.58 51 328 2 1 350 1091 538 50366 594625 3% 7 124564 88%
c i  0.58 51 328 2 1 351 1093 538 50367 594625 3% 7 124561 88%
c i  0.58 51 329 2 1 352 1095 538 50368 594625 3% 7 124556 88%
c i  0.59 51 330 2 1 353 1098 538 50370 594625 3% 7 124529 88%
c i  0.63 57 330 2 1 354 1099 538 50370 594625 3% 7 124306 88%
c -  0.73 57 333 2 2 620 2000 905 50098 594625 3% 8 124306 88%
c }  0.74 57 328 3 2 642 2089 980 50098 594625 3% 8 124306 88%
c [  0.74 57 954 3 2 642 2089 980 50098 594625 21% 89 124306 88%
c W  0.79 57 954 3 2 642 2089 980 50098 592136 21% 89 124306 88%
c ]  0.94 57 573 4 2 642 3003 1866 50099 592136 7% 32 124306 88%
c {  0.94 57 328 4 2 642 3003 1866 50099 592136 3% 8 124306 88%
c
c  seconds   switched conflicts       irredundant  variables
c         MB  reductions   redundant          trail      remaining
c           level restarts        binary         glue
c
c i  0.95 57 343 4 2 645 3017 1878 50100 592136 3% 8 124304 88%
c d  1.17 61 341 4 2 649 3375 2209 51307 590786 3% 8 124242 88%
c b  1.20 61 341 4 2 649 3375 2209 51307 590786 3% 8 124230 88%
c u  1.23 61 341 4 2 649 3375 2208 51308 590786 3% 8 124230 88%
c v  1.29 61 341 4 2 649 3375 2208 51308 590786 3% 8 124230 88%
c w  1.53 64 341 4 2 649 3375 2209 51378 590635 3% 8 124230 88%
c =  1.64 65 341 4 2 649 3375 2209 52591 590369 3% 8 123599 87%
c d  1.68 65 341 4 2 649 3375 2194 50547 590190 3% 8 123545 87%
c t  1.71 65 341 4 2 649 3375 2194 50534 590190 3% 8 123545 87%
c -  2.56 65 335 4 3 658 3414 1194 50442 590190 4% 8 123545 87%
c - 40.01 65 305 4 4 1008 5146 1695 50462 590190 31% 8 123545 87%
c } 46.48 65 290 5 4 1008 5356 1905 50462 590190 34% 8 123545 87%
c [ 46.48 65 573 5 4 1008 5356 1905 50462 590190 7% 32 123545 87%
c I 46.48 65 573 5 4 1008 5356 1905 50462 590190 7% 32 123545 87%
c d 46.59 65 481 5 4 1009 6747 3276 50454 590190 5% 39 123540 87%
c u 46.66 65 481 5 4 1009 6747 3275 50455 590190 5% 39 123540 87%
c v 46.89 65 481 5 4 1009 6747 3275 50455 590190 5% 39 123540 87%
c w 47.45 65 481 5 4 1009 6747 3831 54833 585221 5% 39 123537 87%
c = 47.92 65 481 5 4 1009 6747 3831 58431 585204 5% 39 121738 86%
c d 47.96 65 481 5 4 1009 6747 3831 54845 585189 5% 39 121738 86%
c
c  seconds   switched  conflicts       irredundant   variables
c         MB  reductions    redundant          trail       remaining
c           level  restarts        binary          glue
c
c d 47.97 65 481 5 4 1009 6747 3831 54843 585189 5% 39 121737 86%
c t 48.01 65 481 5 4 1009 6747 3831 46717 585189 5% 39 121737 86%
c i 48.02 65 481 5 4 1009 6747 3831 46717 585189 5% 39 121737 86%
c - 48.05 65 465 5 5 1009 7147 2548 46705 585189 5% 36 121737 86%
c B 48.12 65 417 5 5 1010 9127 4428 46705 585189 4% 30 121737 86%
c - 48.14 65 412 5 6 1010 9384 2732 46706 585189 4% 29 121737 86%
c - 48.30 65 370 5 7 1012 11834 3096 46707 585189 4% 25 121737 86%
c u 49.61 67 350 5 7 1013 13745 4892 46760 585189 5% 29 121737 86%
c v 49.73 67 350 5 7 1013 13745 4892 46760 585189 5% 29 121737 86%
c w 49.95 67 350 5 7 1013 13745 4898 46765 585176 5% 29 121734 86%
c = 50.12 67 350 5 7 1013 13745 4898 47299 585159 5% 29 121467 86%
c d 50.16 67 350 5 7 1013 13745 4898 46778 585146 5% 29 121467 86%
c t 50.19 67 350 5 7 1013 13745 4898 46189 585146 5% 29 121467 86%
c i 50.20 67 350 5 7 1013 13745 4898 46189 585146 5% 29 121467 86%
c - 53.52 67 343 5 8 1014 14479 3281 46184 585146 6% 35 121467 86%
c W 55.76 73 341 5 8 1014 14657 3458 46184 585146 7% 37 121467 86%
c s 76.88 75 325 5 8 1014 16880 5679 46440 582814 14% 75 121467 86%
c e 77.83 83 325 5 8 1014 16880 5679 7925 577527 14% 75 84530 60%
c 2 77.83 83 325 5 8 1014 16880 5679 7923 577527 14% 75 84530 60%
c s 77.89 83 325 5 8 1014 16880 5679 8089 559916 14% 75 84530 60%
c
c  seconds   switched   conflicts      irredundant    variables
c         MB  reductions     redundant          trail      remaining
c           level  restarts         binary          glue
c
c e 78.03 83 325 5 8 1014 16880 5679 7818 559955 14% 75 84373 60%
c ^ 78.03 83 325 5 8 1014 16880 5679 7818 559955 14% 75 84373 60%
c - 80.30 80 323 5 9 1014 17307 2011 7818 559955 15% 79 84373 60%
c ] 82.83 80 321 6 9 1014 17678 2382 7818 559955 16% 83 84373 60%
c { 82.83 80 290 6 9 1014 17678 2382 7818 559955 34% 8 84373 60%
c - 83.24 80 386 6 10 1071 20308 3077 7865 559954 22% 8 84373 60%
c } 84.14 80 450 7 10 1175 21747 4427 7894 559954 20% 8 84373 60%
c [ 84.14 80 321 7 10 1175 21747 4427 7894 559954 16% 83 84373 60%
c O 84.22 80 322 7 10 1175 22185 4860 7897 559954 16% 82 84373 60%
c ] 85.36 80 319 8 10 1176 22887 5560 7899 559954 16% 84 84373 60%
c { 85.36 80 450 8 10 1176 22887 5560 7899 559954 20% 8 84373 60%
c - 87.55 80 433 8 11 1257 23472 4031 7916 559953 20% 8 84373 60%
c i 93.51 80 409 8 11 1294 24414 4934 7931 559951 21% 8 84372 60%
c d 95.18 80 401 8 11 1345 24612 5101 7949 559893 21% 8 84370 60%
c d 95.20 80 401 8 11 1345 24612 5100 7940 559885 21% 8 84366 60%
c u 95.40 80 401 8 11 1345 24612 5080 7959 559885 21% 8 84365 60%
c v 97.12 80 401 8 11 1345 24612 5073 7966 559885 21% 8 84365 60%
c w 97.70 82 401 8 11 1345 24612 9400 8062 555450 21% 8 84364 60%
c = 98.21 82 401 8 11 1345 24612 9400 8078 555441 21% 8 84356 60%
c d 98.24 82 401 8 11 1345 24612 9398 8061 555437 21% 8 84355 60%
c
c  seconds   switched    conflicts      irredundant   variables
c         MB   reductions     redundant          trail     remaining
c           level   restarts         binary         glue
c
c t 98.28 82 401 8 11 1345 24612 9398 7952 555437 21% 8 84355 60%
c i 98.29 82 401 8 11 1345 24612 9398 7952 555437 21% 8 84355 60%
c - 121.69 82 397 8 12 1564 26788 9372 7953 555437 26% 8 84355 60%
c } 163.41 82 356 9 12 2001 29047 11604 7956 555437 34% 8 84355 60%
c [ 163.41 82 319 9 12 2001 29047 11604 7956 555437 16% 84 84355 60%
c - 165.20 84 316 9 13 2002 30252 9885 7957 555437 15% 87 84355 60%
c B 166.40 84 312 9 13 2003 31946 11571 7958 555437 15% 87 84355 60%
c s 178.12 84 307 9 13 2004 33436 13061 7970 555412 17% 97 84355 60%
c e 178.66 84 307 9 13 2004 33436 13061 4583 547431 17% 97 80722 57%
c s 178.68 84 307 9 13 2004 33436 13061 4605 546648 17% 97 80722 57%
c ^ 178.72 84 307 9 13 2004 33436 13061 4605 546648 17% 97 80722 57%
c - 181.33 84 306 9 14 2004 33858 8458 4605 546648 18% 100 80722 57%
c - 190.85 84 307 9 15 2007 37600 8566 4606 546648 18% 103 80722 57%
c u 199.54 84 304 9 15 2007 39329 10282 4611 546648 19% 106 80722 57%
c v 200.04 84 304 9 15 2007 39329 10282 4611 546648 19% 106 80722 57%
c w 200.63 84 304 9 15 2007 39329 10462 4619 546460 19% 106 80722 57%
c t 201.13 84 304 9 15 2007 39329 10462 4616 546460 19% 106 80722 57%
c - 201.90 84 318 9 16 2008 41472 8982 4616 546460 18% 106 80722 57%
c W 208.89 85 324 9 16 2010 44172 11660 4621 546460 18% 106 80722 57%
c - 209.00 85 323 9 17 2010 45472 9464 4624 546460 17% 104 80722 57%
c
c  seconds    switched    conflicts      irredundant     variables
c          MB   reductions     redundant          trail       remaining
c            level   restarts         binary          glue
c
c - 222.46 85 329 9 18 2013 49595 9875 4629 546460 18% 103 80722 57%
c - 223.01 85 343 9 19 2015 53841 10341 4642 546460 16% 98 80722 57%
c ] 227.80 85 344 10 19 2015 54833 11330 4642 546460 17% 100 80722 57%
c { 227.80 85 356 10 19 2015 54833 11330 4642 546460 34% 8 80722 57%
c - 270.06 87 344 10 20 2134 58200 11980 4649 546460 37% 8 80722 57%
c u 270.80 87 344 10 20 2138 58216 11972 4673 546460 37% 8 80722 57%
c v 271.73 87 344 10 20 2138 58216 11524 5121 546460 37% 8 80722 57%
c w 272.31 87 344 10 20 2138 58216 11580 5123 546402 37% 8 80722 57%
c t 272.81 87 344 10 20 2138 58216 11580 4651 546402 37% 8 80722 57%
c i 282.13 87 334 10 20 2176 58678 12033 4659 546402 39% 8 80721 57%
c - 358.33 87 280 10 21 2352 62672 13017 4651 546402 47% 8 80721 57%
c } 374.09 87 269 11 21 2352 63461 13805 4652 546402 48% 8 80721 57%
c [ 374.09 87 344 11 21 2352 63461 13805 4652 546402 17% 100 80721 57%
c I 374.09 87 344 11 21 2352 63461 13805 4652 546402 17% 100 80721 57%
c - 377.67 87 343 11 22 2354 67255 14117 4656 546402 16% 96 80721 57%
c 2 382.70 87 341 11 22 2356 69169 16026 4656 546402 16% 96 80721 57%
c s 382.71 87 341 11 22 2356 69169 16026 4656 546381 16% 96 80721 57%
c e 383.21 64 341 11 22 2356 69169 16026 4161 547416 16% 96 80434 57%
c s 383.22 64 341 11 22 2356 69169 16026 4170 547175 16% 96 80434 57%
c ^ 383.24 64 341 11 22 2356 69169 16026 4170 547175 16% 96 80434 57%
c
c  seconds     switched    conflicts       irredundant    variables
c          MB    reductions      redundant          trail      remaining
c            level    restarts          binary          glue
c
c - 390.70 75 336 11 23 2358 71945 13184 4177 547175 16% 95 80434 57%
c - 394.97 75 329 11 24 2359 76741 13158 4177 547175 15% 90 80434 57%
c B 402.58 77 324 11 24 2363 81263 17662 4178 547175 15% 88 80434 57%
c u 402.85 79 324 11 24 2363 81454 17825 4214 547167 15% 88 80434 57%
c v 403.17 79 324 11 24 2363 81454 17434 4605 547167 15% 88 80434 57%
c w 403.74 79 324 11 24 2363 81454 17527 4620 547059 15% 88 80434 57%
c t 404.22 79 324 11 24 2363 81454 17527 4188 547059 15% 88 80434 57%
c - 405.70 79 323 11 25 2363 81639 13445 4188 547059 15% 88 80434 57%
c - 419.43 79 322 11 26 2365 86640 13882 4191 547059 15% 91 80434 57%
c - 427.21 79 319 11 27 2366 91739 13640 4193 547059 14% 92 80434 57%
c - 429.92 79 316 11 28 2367 96937 13687 4193 547059 13% 92 80434 57%
c W 444.48 81 316 11 28 2371 102175 18905 4197 547059 14% 94 80434 57%
c - 444.49 81 316 11 29 2371 102231 14333 4197 547059 14% 94 80434 57%
c - 453.57 81 314 11 30 2373 107616 14911 4198 547059 13% 94 80434 57%
c u 455.85 81 313 11 30 2374 109209 16491 4205 547059 13% 93 80434 57%
c v 456.01 81 313 11 30 2374 109209 16491 4205 547059 13% 93 80434 57%
c w 456.57 81 313 11 30 2374 109209 16532 4206 547017 13% 93 80434 57%
c t 457.05 81 313 11 30 2374 109209 16532 4201 547017 13% 93 80434 57%
c - 465.21 81 312 11 31 2377 113094 15365 4203 547017 13% 94 80434 57%
c - 481.70 81 311 11 32 2380 118661 16001 4209 547017 14% 96 80434 57%
c
c  seconds     switched    conflicts        irredundant    variables
c          MB    reductions       redundant          trail      remaining
c            level    restarts           binary          glue
c
c - 493.78 81 309 11 33 2381 124318 16424 4209 547017 14% 96 80434 57%
c O 493.90 81 308 11 33 2381 126400 18495 4209 547017 13% 95 80434 57%
c e 495.91 81 307 11 33 2381 126725 18817 3917 567802 13% 95 74454 53%
c s 495.96 81 307 11 33 2381 126725 18817 3922 567396 13% 95 74454 53%
c e 495.99 81 307 11 33 2381 126725 18817 3917 567409 13% 95 74452 53%
c ^ 496.00 81 307 11 33 2381 126725 18817 3917 567409 13% 95 74452 53%
c ] 497.91 83 307 12 33 2381 127508 15311 3917 567409 14% 95 74452 53%
c { 497.91 83 269 12 33 2381 127508 15311 3917 567409 48% 8 74452 53%
c - 525.95 85 276 12 34 2784 130063 14399 3937 567409 48% 8 74452 53%
c i 577.43 87 247 12 34 2784 132735 17039 3950 567409 51% 8 74449 53%
c i 623.23 87 260 12 34 2795 135432 19697 3963 567408 53% 8 74446 53%
c - 623.30 87 262 12 35 2795 135895 14519 3940 567408 52% 8 74446 53%
c i 623.79 87 253 12 35 2795 137249 15868 3941 567408 50% 8 74445 53%
c i 645.10 87 248 12 35 2821 138891 17470 3953 567407 50% 7 74440 53%
c } 645.11 87 257 13 35 2821 138987 17566 3953 567407 50% 7 74440 53%
c [ 645.11 87 307 13 35 2821 138987 17566 3953 567407 14% 95 74440 53%
c d 648.96 87 339 13 35 2823 141644 18318 4071 566971 13% 94 74436 53%
c d 648.98 87 339 13 35 2823 141644 18182 4006 566936 13% 94 74410 53%
c u 649.61 87 339 13 35 2823 141644 18111 4077 566936 13% 94 74410 53%
c v 653.04 87 339 13 35 2823 141644 18070 4118 566936 13% 94 74410 53%
c
c  seconds     switched    conflicts        irredundant    variables
c          MB    reductions       redundant          trail      remaining
c            level    restarts           binary          glue
c
c w 653.79 87 339 13 35 2823 141644 18242 4291 566567 13% 94 74406 53%
c = 654.31 87 339 13 35 2823 141644 18242 4331 566539 13% 94 74388 53%
c d 654.35 87 339 13 35 2823 141644 18239 4278 566538 13% 94 74388 53%
c t 654.40 87 339 13 35 2823 141644 18239 4037 566538 13% 94 74388 53%
c i 654.40 87 339 13 35 2823 141644 18239 4037 566538 13% 94 74388 53%
c - 655.48 87 339 13 36 2823 141812 15609 3987 566538 13% 94 74388 53%
c - 672.41 87 333 13 37 2827 147812 17000 4000 566538 14% 93 74388 53%
c - 694.63 87 326 13 38 2830 153897 17313 4002 566538 14% 92 74388 53%
c B 695.66 87 326 13 38 2830 154140 17552 4002 566538 14% 92 74388 53%
c - 716.71 87 323 13 39 2834 160065 17616 4005 566538 15% 95 74388 53%
c - 748.11 87 320 13 40 2835 166310 17705 4008 566538 16% 100 74388 53%
c ] 773.23 87 318 14 40 2835 170764 22144 4008 566538 17% 102 74388 53%
c { 773.23 87 257 14 40 2835 170764 22144 4008 566538 50% 7 74388 53%
c i 785.86 87 253 14 40 2842 171374 22733 4019 566538 50% 7 74381 53%
c i 793.02 87 249 14 40 2842 171884 23212 4027 566538 51% 7 74378 53%
c - 793.09 87 258 14 41 2842 172637 17990 4040 566538 49% 7 74378 53%
c i 812.46 87 226 14 41 2842 178219 23314 4049 566537 44% 7 74377 53%
c i 815.76 87 226 14 41 2886 178455 23533 4054 566537 45% 8 74376 53%
c i 815.89 87 226 14 41 2886 178464 23538 4057 566537 45% 8 74372 53%
c i 816.26 87 226 14 41 2886 178484 23552 4062 566537 45% 8 74364 53%
c
c  seconds     switched    conflicts        irredundant   variables
c          MB    reductions       redundant          trail     remaining
c            level    restarts           binary         glue
c
c i 816.52 87 226 14 41 2886 178504 23567 4066 566537 45% 8 74275 53%
c i 816.55 87 226 14 41 2886 178506 23567 4067 566537 45% 8 74274 53%
c i 816.55 87 226 14 41 2886 178507 23567 4067 566537 45% 8 74036 52%
c i 816.59 87 226 14 41 2886 178509 23567 4068 566537 45% 8 73825 52%
c } 816.62 87 226 14 41 2886 178511 23567 4068 566537 45% 8 23326 16%
c 0 816.62 87 226 14 41 2886 178511 23567 4068 566537 45% 8 23326 16%
c
c ---- [ result ] ------------------------------------------------------------
c
s UNSATISFIABLE
c
c ---- [ profiling ] ---------------------------------------------------------
c
c         792.60   97.06 %  search
c         456.04   55.84 %  focused
c         336.56   41.21 %  stable
c          23.80    2.92 %  simplify
c          18.67    2.29 %  probe
c          13.92    1.70 %  vivify
c           3.48    0.43 %  sweep
c           3.32    0.41 %  eliminate
c           1.81    0.22 %  walking
c           1.00    0.12 %  substitute
c           0.57    0.07 %  reduce
c           0.32    0.04 %  subsume
c           0.21    0.03 %  parse
c           0.18    0.02 %  transitive
c           0.10    0.01 %  backbone
c           0.00    0.00 %  warmup
c =============================================
c         816.62  100.00 %  total
c
c ---- [ statistics ] --------------------------------------------------------
c
c chronological:                          927                1 %  conflicts
c conflicts:                           178511              218.60 per second
c decisions:                           917390                5.14 per conflict
c eliminated:                           46996               33 %  variables
c jumped_reasons:                    10702133                0 %  propagations
c propagations:                    2904946987          3557282    per second
c queue_decisions:                     314781               34 %  decision
c random_decisions:                    366167               40 %  decision
c random_sequences:                        35             5100    interval
c reductions:                              41             4354    interval
c rephased:                                13            13732    interval
c restarts:                              2886               61.85 interval
c score_decisions:                     236442               26 %  decision
c strengthened:                         13652                0 %  checks
c substituted:                           2835                2 %  variables
c subsumed:                             20929                0 %  checks
c switched:                                14            12751    interval
c vivified:                             19743                0 %  checks
c vivify_checks:                      4014572           446064    per vivify
c vivify_units:                             7                0 %  variables
c walk_improved:                            4              100 %  walks
c walks:                                    4            44628    interval
c
c ---- [ resources ] ---------------------------------------------------------
c
c maximum-resident-set-size:         91467776 bytes         87 MB
c process-time:                        13m 37s             816.62 seconds
c
c ---- [ shutting down ] -----------------------------------------------------
c
c exit 20
